data;

param w := 26;
param n := 22;
param min_h := 26;
param max_h := 36;

set BLOCKS := 1 2 3 4 5 6 7 8 9 10 11 12 13 14 15 16 17 18 19 20 21 22 ;

param:	width	height :=
	1	3	19
	2	4	14
	3	3	17
	4	3	16
	5	3	15
	6	4	11
	7	3	14
	8	3	12
	9	3	11
	10	4	8
	11	3	10
	12	4	7
	13	3	9
	14	3	8
	15	3	7
	16	4	5
	17	3	6
	18	4	4
	19	3	5
	20	3	4
	21	4	3
	22	3	3;